p cnf 84 249
-4 -1 -2 0
4 1 -2 0
4 -1 2 0
-4 1 2 0
-5 -1 -2 0
5 1 -2 0
5 -1 2 0
-5 1 2 0
-6 2 3 0
6 -2 0
6 -3 0
-7 2 3 0
7 -2 0
7 -3 0
-8 -3 -3 0
8 3 0
8 3 0
-9 -3 -3 0
9 3 0
9 3 0
10 -6 -3 0
-10 6 0
-10 3 0
7 -81 12 0
7 81 -12 0
-7 -82 12 0
-7 82 -12 0
7 -83 13 0
7 83 -13 0
-7 -84 13 0
-7 84 -13 0
3 -12 11 0
3 12 -11 0
-3 -13 11 0
-3 13 -11 0
-14 4 10 0
14 -4 0
14 -10 0
-15 5 11 0
15 -5 0
15 -11 0
-16 -10 -8 0
16 10 -8 0
16 -10 8 0
-16 10 8 0
-17 -11 -9 0
17 11 -9 0
17 -11 9 0
-17 11 9 0
18 -14 -16 0
-18 14 0
-18 16 0
19 -15 -17 0
-19 15 0
-19 17 0
-20 -18 -19 0
20 18 -19 0
20 -18 19 0
-20 18 19 0
-24 -21 -22 0
24 21 -22 0
24 -21 22 0
-24 21 22 0
-25 -21 -22 0
25 21 -22 0
25 -21 22 0
-25 21 22 0
-26 22 23 0
26 -22 0
26 -23 0
-27 22 23 0
27 -22 0
27 -23 0
-28 -23 -23 0
28 23 0
28 23 0
-29 -23 -23 0
29 23 0
29 23 0
30 -26 -23 0
-30 26 0
-30 23 0
27 -81 32 0
27 81 -32 0
-27 -82 32 0
-27 82 -32 0
27 -83 33 0
27 83 -33 0
-27 -84 33 0
-27 84 -33 0
23 -32 31 0
23 32 -31 0
-23 -33 31 0
-23 33 -31 0
-34 24 30 0
34 -24 0
34 -30 0
-35 25 31 0
35 -25 0
35 -31 0
-36 -30 -28 0
36 30 -28 0
36 -30 28 0
-36 30 28 0
-37 -31 -29 0
37 31 -29 0
37 -31 29 0
-37 31 29 0
38 -34 -36 0
-38 34 0
-38 36 0
39 -35 -37 0
-39 35 0
-39 37 0
-40 -38 -39 0
40 38 -39 0
40 -38 39 0
-40 38 39 0
-44 -41 -42 0
44 41 -42 0
44 -41 42 0
-44 41 42 0
-45 -41 -42 0
45 41 -42 0
45 -41 42 0
-45 41 42 0
-46 42 43 0
46 -42 0
46 -43 0
-47 42 43 0
47 -42 0
47 -43 0
-48 -43 -43 0
48 43 0
48 43 0
-49 -43 -43 0
49 43 0
49 43 0
50 -46 -43 0
-50 46 0
-50 43 0
47 -81 52 0
47 81 -52 0
-47 -82 52 0
-47 82 -52 0
47 -83 53 0
47 83 -53 0
-47 -84 53 0
-47 84 -53 0
43 -52 51 0
43 52 -51 0
-43 -53 51 0
-43 53 -51 0
-54 44 50 0
54 -44 0
54 -50 0
-55 45 51 0
55 -45 0
55 -51 0
-56 -50 -48 0
56 50 -48 0
56 -50 48 0
-56 50 48 0
-57 -51 -49 0
57 51 -49 0
57 -51 49 0
-57 51 49 0
58 -54 -56 0
-58 54 0
-58 56 0
59 -55 -57 0
-59 55 0
-59 57 0
-60 -58 -59 0
60 58 -59 0
60 -58 59 0
-60 58 59 0
-64 -61 -62 0
64 61 -62 0
64 -61 62 0
-64 61 62 0
-65 -61 -62 0
65 61 -62 0
65 -61 62 0
-65 61 62 0
-66 62 63 0
66 -62 0
66 -63 0
-67 62 63 0
67 -62 0
67 -63 0
-68 -63 -63 0
68 63 0
68 63 0
-69 -63 -63 0
69 63 0
69 63 0
70 -66 -63 0
-70 66 0
-70 63 0
67 -81 72 0
67 81 -72 0
-67 -82 72 0
-67 82 -72 0
67 -83 73 0
67 83 -73 0
-67 -84 73 0
-67 84 -73 0
63 -72 71 0
63 72 -71 0
-63 -73 71 0
-63 73 -71 0
-74 64 70 0
74 -64 0
74 -70 0
-75 65 71 0
75 -65 0
75 -71 0
-76 -70 -68 0
76 70 -68 0
76 -70 68 0
-76 70 68 0
-77 -71 -69 0
77 71 -69 0
77 -71 69 0
-77 71 69 0
78 -74 -76 0
-78 74 0
-78 76 0
79 -75 -77 0
-79 75 0
-79 77 0
-80 -78 -79 0
80 78 -79 0
80 -78 79 0
-80 78 79 0
20 0
-40 0
-60 0
-80 0
-21 0
-22 0
23 0
-41 0
42 0
-43 0
61 0
-62 0
-63 0
